Route #1:
Route #2: 12 29 5
Route #3: 14
Route #4: 7 18 10 25 11 15
Route #5: 20 9 30
Route #6: 13 23
Route #7: 27
Route #8: 28 2 3 19 31 17
Route #9: 6 21
Route #10: 22 4
Route #11: 1 24
Route #12: 8
Route #13: 16
Route #14: 26

Cost: 2059.5512994374512
